s = array1d(1..225, [6, 0, 1, 7, 0, 0, 0, 0, 0, 14, 12, 0, 4, 11, 0, 3, 7, 0, 10, 12, 0, 9, 0, 0, 0, 0, 0, 0, 14, 0, 0, 3, 14, 0, 4, 0, 13, 0, 0, 0, 0, 0, 12, 6, 0, 0, 0, 0, 0, 9, 4, 0, 0, 2, 0, 8, 5, 7, 0, 12, 0, 0, 0, 0, 0, 5, 14, 0, 4, 2, 0, 13, 3, 0, 0, 8, 0, 4, 0, 6, 13, 7, 0, 0, 0, 0, 12, 0, 0, 0, 0, 9, 6, 11, 2, 8, 0, 0, 0, 0, 5, 14, 0, 0, 0, 13, 0, 0, 0, 0, 12, 1, 7, 11, 0, 0, 8, 14, 0, 0, 0, 0, 7, 2, 0, 14, 6, 0, 8, 1, 0, 0, 0, 10, 0, 0, 10, 0, 0, 0, 0, 0, 3, 7, 5, 0, 0, 0, 4, 11, 1, 0, 0, 8, 0, 0, 0, 6, 9, 4, 0, 0, 0, 2, 7, 0, 13, 0, 0, 0, 0, 0, 4, 0, 10, 14, 0, 8, 0, 5, 12, 0, 0, 4, 10, 0, 0, 0, 0, 11, 1, 3, 0, 0, 0, 2, 0, 0, 6, 0, 0, 3, 9, 1, 0, 10, 0, 0, 0, 8, 0, 12, 5, 0, 8, 0, 0, 13, 0, 0, 11, 2, 0, 0, 9]);
n = 15;
